c WARNING: for repeatability, setting FPU to use double precision
d VARIABLES            26816        
d CONSTRAINTS          90792        
c ============================[ Problem Statistics ]=============================
c |                                                                             |
c |  Number of variables:         26816                                         |
c |  Number of clauses:           90792                                         |
c |  Parse time:                   0.01 s                                       |
c |                                                                             |
c ============================[ Search Statistics ]==============================
c | Conflicts |          ORIGINAL         |          LEARNT          | Progress |
c |           |    Vars  Clauses Literals |    Limit  Clauses Lit/Cl |          |
c ===============================================================================
c |       100 |   17231    66162   166521 |    24259      100     34 | 35.744 % |
c |       250 |   17231    66162   166521 |    26685      250     41 | 35.744 % |
c |       475 |   17231    66162   166521 |    29353      475     43 | 35.744 % |
c |       812 |   17231    66162   166521 |    32289      812     40 | 35.744 % |
c |      1318 |   17231    66162   166521 |    35518     1318     29 | 35.744 % |
c |      2077 |   17231    66162   166521 |    39070     2077     29 | 35.744 % |
c |      3216 |   17231    66162   166521 |    42977     3216     57 | 35.744 % |
c |      4924 |   17231    66162   166521 |    47274     4924     57 | 35.744 % |
c |      7486 |   17231    66162   166521 |    52002     7486     68 | 35.744 % |
c |     11330 |   17230    66158   166511 |    57202    11329     70 | 35.747 % |
c |     17096 |   17230    66158   166511 |    62922    17095     83 | 35.747 % |
c |     25745 |   17230    66158   166511 |    69214    25744    101 | 35.747 % |
c |     38719 |   17230    66158   166511 |    76136    38718    113 | 35.747 % |
c |     58180 |   17229    66154   166501 |    83750    58178    122 | 35.751 % |
c |     87372 |   17228    66150   166491 |    92125    87369    132 | 35.755 % |
c |    131161 |   17228    66150   166491 |   101337    48088    118 | 35.755 % |
c |    196845 |   17228    66150   166491 |   111471    23302     79 | 35.755 % |
c |    295371 |   17228    66150   166491 |   122618    25802     70 | 35.755 % |
c |    443160 |   17228    66150   166491 |   134880    69045    101 | 35.755 % |
c |    664843 |   17228    66150   166491 |   148368    54754     85 | 35.755 % |
c |    997368 |   17227    66146   166481 |   163205   127432    108 | 35.759 % |
c |   1496156 |   17227    66146   166481 |   179525    30027     59 | 35.759 % |
c |   2244338 |   17227    66146   166481 |   197478   125163    160 | 35.759 % |
c |   3366612 |   17227    66146   166481 |   217226   162322    122 | 35.759 % |
c |   5050023 |   17227    66146   166481 |   238948   226488    139 | 35.759 % |
c ===============================================================================
c restarts              : 9137
c conflicts             : 5724635        (3210 /sec)
c decisions             : 11546100       (0.00 % random) (6474 /sec)
c propagations          : 5467405823     (3065852 /sec)
c conflict literals     : 748198032      (28.50 % deleted)
d RESTARTS             9137
d FAILURES             5724635      
d NODES                11546100     
d BACKTRACKS           11546100     
d PROPAGATIONS         5467405823   
d NOGOODSIZE           130.70 
d MEMORY               301.00 
d TIME                 1783.32 

s UNKNOWN
